logs/miss/feas/miss-05-30-0.lp
\ LP format - for model browsing. Use MPS format to capture full model detail.
Minimize
  p0 + p1 + p2 + p3 + p4
Subject To
 R0: x0,1_28 + x0,2_28 + x0,3_28 + x0,4_28 + x1,2_28 + x1,3_28 + x1,4_28
   + x2,3_28 + x2,4_28 + x3,4_28 = 1
 R1: x0,1_50 + x0,2_50 + x0,3_50 + x0,4_50 + x1,2_50 + x1,3_50 + x1,4_50
   + x2,3_50 + x2,4_50 + x3,4_50 = 1
 R2: x0,1_53 + x0,2_53 + x0,3_53 + x0,4_53 + x1,2_53 + x1,3_53 + x1,4_53
   + x2,3_53 + x2,4_53 + x3,4_53 = 1
 R3: x0,1_78 + x0,2_78 + x0,3_78 + x0,4_78 + x1,2_78 + x1,3_78 + x1,4_78
   + x2,3_78 + x2,4_78 + x3,4_78 = 1
 R4: x0,1_82 + x0,2_82 + x0,3_82 + x0,4_82 + x1,2_82 + x1,3_82 + x1,4_82
   + x2,3_82 + x2,4_82 + x3,4_82 = 1
 R5: x0,1_28 + x0,1_50 + x0,1_53 + x0,1_78 + x0,1_82 <= 1
 R6: x0,2_28 + x0,2_50 + x0,2_53 + x0,2_78 + x0,2_82 <= 1
 R7: x0,3_28 + x0,3_50 + x0,3_53 + x0,3_78 + x0,3_82 <= 1
 R8: x0,4_28 + x0,4_50 + x0,4_53 + x0,4_78 + x0,4_82 <= 1
 R9: x1,2_28 + x1,2_50 + x1,2_53 + x1,2_78 + x1,2_82 <= 1
 R10: x1,3_28 + x1,3_50 + x1,3_53 + x1,3_78 + x1,3_82 <= 1
 R11: x1,4_28 + x1,4_50 + x1,4_53 + x1,4_78 + x1,4_82 <= 1
 R12: x2,3_28 + x2,3_50 + x2,3_53 + x2,3_78 + x2,3_82 <= 1
 R13: x2,4_28 + x2,4_50 + x2,4_53 + x2,4_78 + x2,4_82 <= 1
 R14: x3,4_28 + x3,4_50 + x3,4_53 + x3,4_78 + x3,4_82 <= 1
 R15: p0 - p1 <= -1
 R16: - 28 x0,1_28 - p0 + p1 >= 0
 R17: 291 x0,1_28 - p0 + p1 <= 319
 R18: - 50 x0,1_50 - p0 + p1 >= 0
 R19: 291 x0,1_50 - p0 + p1 <= 341
 R20: - 53 x0,1_53 - p0 + p1 >= 0
 R21: 291 x0,1_53 - p0 + p1 <= 344
 R22: - 78 x0,1_78 - p0 + p1 >= 0
 R23: 291 x0,1_78 - p0 + p1 <= 369
 R24: - 82 x0,1_82 - p0 + p1 >= 0
 R25: 291 x0,1_82 - p0 + p1 <= 373
 R26: p0 - p2 <= -1
 R27: - 28 x0,2_28 - p0 + p2 >= 0
 R28: 291 x0,2_28 - p0 + p2 <= 319
 R29: - 50 x0,2_50 - p0 + p2 >= 0
 R30: 291 x0,2_50 - p0 + p2 <= 341
 R31: - 53 x0,2_53 - p0 + p2 >= 0
 R32: 291 x0,2_53 - p0 + p2 <= 344
 R33: - 78 x0,2_78 - p0 + p2 >= 0
 R34: 291 x0,2_78 - p0 + p2 <= 369
 R35: - 82 x0,2_82 - p0 + p2 >= 0
 R36: 291 x0,2_82 - p0 + p2 <= 373
 R37: p0 - p3 <= -1
 R38: - 28 x0,3_28 - p0 + p3 >= 0
 R39: 291 x0,3_28 - p0 + p3 <= 319
 R40: - 50 x0,3_50 - p0 + p3 >= 0
 R41: 291 x0,3_50 - p0 + p3 <= 341
 R42: - 53 x0,3_53 - p0 + p3 >= 0
 R43: 291 x0,3_53 - p0 + p3 <= 344
 R44: - 78 x0,3_78 - p0 + p3 >= 0
 R45: 291 x0,3_78 - p0 + p3 <= 369
 R46: - 82 x0,3_82 - p0 + p3 >= 0
 R47: 291 x0,3_82 - p0 + p3 <= 373
 R48: p0 - p4 <= -1
 R49: - 28 x0,4_28 - p0 + p4 >= 0
 R50: 291 x0,4_28 - p0 + p4 <= 319
 R51: - 50 x0,4_50 - p0 + p4 >= 0
 R52: 291 x0,4_50 - p0 + p4 <= 341
 R53: - 53 x0,4_53 - p0 + p4 >= 0
 R54: 291 x0,4_53 - p0 + p4 <= 344
 R55: - 78 x0,4_78 - p0 + p4 >= 0
 R56: 291 x0,4_78 - p0 + p4 <= 369
 R57: - 82 x0,4_82 - p0 + p4 >= 0
 R58: 291 x0,4_82 - p0 + p4 <= 373
 R59: p1 - p2 <= -1
 R60: - 28 x1,2_28 - p1 + p2 >= 0
 R61: 291 x1,2_28 - p1 + p2 <= 319
 R62: - 50 x1,2_50 - p1 + p2 >= 0
 R63: 291 x1,2_50 - p1 + p2 <= 341
 R64: - 53 x1,2_53 - p1 + p2 >= 0
 R65: 291 x1,2_53 - p1 + p2 <= 344
 R66: - 78 x1,2_78 - p1 + p2 >= 0
 R67: 291 x1,2_78 - p1 + p2 <= 369
 R68: - 82 x1,2_82 - p1 + p2 >= 0
 R69: 291 x1,2_82 - p1 + p2 <= 373
 R70: p1 - p3 <= -1
 R71: - 28 x1,3_28 - p1 + p3 >= 0
 R72: 291 x1,3_28 - p1 + p3 <= 319
 R73: - 50 x1,3_50 - p1 + p3 >= 0
 R74: 291 x1,3_50 - p1 + p3 <= 341
 R75: - 53 x1,3_53 - p1 + p3 >= 0
 R76: 291 x1,3_53 - p1 + p3 <= 344
 R77: - 78 x1,3_78 - p1 + p3 >= 0
 R78: 291 x1,3_78 - p1 + p3 <= 369
 R79: - 82 x1,3_82 - p1 + p3 >= 0
 R80: 291 x1,3_82 - p1 + p3 <= 373
 R81: p1 - p4 <= -1
 R82: - 28 x1,4_28 - p1 + p4 >= 0
 R83: 291 x1,4_28 - p1 + p4 <= 319
 R84: - 50 x1,4_50 - p1 + p4 >= 0
 R85: 291 x1,4_50 - p1 + p4 <= 341
 R86: - 53 x1,4_53 - p1 + p4 >= 0
 R87: 291 x1,4_53 - p1 + p4 <= 344
 R88: - 78 x1,4_78 - p1 + p4 >= 0
 R89: 291 x1,4_78 - p1 + p4 <= 369
 R90: - 82 x1,4_82 - p1 + p4 >= 0
 R91: 291 x1,4_82 - p1 + p4 <= 373
 R92: p2 - p3 <= -1
 R93: - 28 x2,3_28 - p2 + p3 >= 0
 R94: 291 x2,3_28 - p2 + p3 <= 319
 R95: - 50 x2,3_50 - p2 + p3 >= 0
 R96: 291 x2,3_50 - p2 + p3 <= 341
 R97: - 53 x2,3_53 - p2 + p3 >= 0
 R98: 291 x2,3_53 - p2 + p3 <= 344
 R99: - 78 x2,3_78 - p2 + p3 >= 0
 R100: 291 x2,3_78 - p2 + p3 <= 369
 R101: - 82 x2,3_82 - p2 + p3 >= 0
 R102: 291 x2,3_82 - p2 + p3 <= 373
 R103: p2 - p4 <= -1
 R104: - 28 x2,4_28 - p2 + p4 >= 0
 R105: 291 x2,4_28 - p2 + p4 <= 319
 R106: - 50 x2,4_50 - p2 + p4 >= 0
 R107: 291 x2,4_50 - p2 + p4 <= 341
 R108: - 53 x2,4_53 - p2 + p4 >= 0
 R109: 291 x2,4_53 - p2 + p4 <= 344
 R110: - 78 x2,4_78 - p2 + p4 >= 0
 R111: 291 x2,4_78 - p2 + p4 <= 369
 R112: - 82 x2,4_82 - p2 + p4 >= 0
 R113: 291 x2,4_82 - p2 + p4 <= 373
 R114: p3 - p4 <= -1
 R115: - 28 x3,4_28 - p3 + p4 >= 0
 R116: 291 x3,4_28 - p3 + p4 <= 319
 R117: - 50 x3,4_50 - p3 + p4 >= 0
 R118: 291 x3,4_50 - p3 + p4 <= 341
 R119: - 53 x3,4_53 - p3 + p4 >= 0
 R120: 291 x3,4_53 - p3 + p4 <= 344
 R121: - 78 x3,4_78 - p3 + p4 >= 0
 R122: 291 x3,4_78 - p3 + p4 <= 369
 R123: - 82 x3,4_82 - p3 + p4 >= 0
 R124: 291 x3,4_82 - p3 + p4 <= 373
Bounds
Binaries
 x0,1_28 x0,1_50 x0,1_53 x0,1_78 x0,1_82 x0,2_28 x0,2_50 x0,2_53 x0,2_78
 x0,2_82 x0,3_28 x0,3_50 x0,3_53 x0,3_78 x0,3_82 x0,4_28 x0,4_50 x0,4_53
 x0,4_78 x0,4_82 x1,2_28 x1,2_50 x1,2_53 x1,2_78 x1,2_82 x1,3_28 x1,3_50
 x1,3_53 x1,3_78 x1,3_82 x1,4_28 x1,4_50 x1,4_53 x1,4_78 x1,4_82 x2,3_28
 x2,3_50 x2,3_53 x2,3_78 x2,3_82 x2,4_28 x2,4_50 x2,4_53 x2,4_78 x2,4_82
 x3,4_28 x3,4_50 x3,4_53 x3,4_78 x3,4_82
Generals
 p0 p1 p2 p3 p4
End
