logs/miss/feas/miss-05-30-0.sol
# Objective value = 141
x0,1_28 0
x0,1_50 0
x0,1_53 0
x0,1_78 0
x0,1_82 0
x0,2_28 0
x0,2_50 0
x0,2_53 0
x0,2_78 0
x0,2_82 0
x0,3_28 0
x0,3_50 0
x0,3_53 0
x0,3_78 0
x0,3_82 0
x0,4_28 0
x0,4_50 0
x0,4_53 0
x0,4_78 0
x0,4_82 1
x1,2_28 0
x1,2_50 0
x1,2_53 0
x1,2_78 0
x1,2_82 0
x1,3_28 0
x1,3_50 0
x1,3_53 1
x1,3_78 0
x1,3_82 0
x1,4_28 0
x1,4_50 0
x1,4_53 0
x1,4_78 0
x1,4_82 0
x2,3_28 0
x2,3_50 1
x2,3_53 0
x2,3_78 0
x2,3_82 0
x2,4_28 0
x2,4_50 0
x2,4_53 0
x2,4_78 1
x2,4_82 0
x3,4_28 1
x3,4_50 0
x3,4_53 0
x3,4_78 0
x3,4_82 0
p0 0
p1 1
p2 4
p3 54
p4 82
