logs/miss/feas/miss-05-30-0.log

Gurobi 8.1.1 (win64) logging started 11/24/19 10:01:17

Changed value of parameter LogFile to logs/miss/feas/miss-05-30-0.log
   Prev: gurobi.log  Default: 
Changed value of parameter LogToConsole to 0
   Prev: 1  Min: 0  Max: 1  Default: 1
Changed value of parameter TimeLimit to 3600.0
   Prev: 1e+100  Min: 0.0  Max: 1e+100  Default: 1e+100
Optimize a model with 185 rows, 81 columns and 630 nonzeros
Variable types: 0 continuous, 81 integer (75 binary)
Coefficient statistics:
  Matrix range     [1e+00, 3e+02]
  Objective range  [1e+00, 1e+00]
  Bounds range     [1e+00, 1e+00]
  RHS range        [1e+00, 4e+02]
Found heuristic solution: objective 152.0000000
Presolve removed 66 rows and 32 columns
Presolve time: 0.00s
Presolved: 119 rows, 49 columns, 376 nonzeros
Variable types: 0 continuous, 49 integer (43 binary)

Root relaxation: objective 2.840000e+01, 38 iterations, 0.00 seconds

    Nodes    |    Current Node    |     Objective Bounds      |     Work
 Expl Unexpl |  Obj  Depth IntInf | Incumbent    BestBd   Gap | It/Node Time

     0     0   28.40000    0   33  152.00000   28.40000  81.3%     -    0s
     0     0   45.63262    0   25  152.00000   45.63262  70.0%     -    0s
H    0     0                     146.0000000   45.63262  68.7%     -    0s
     0     0   46.65197    0   24  146.00000   46.65197  68.0%     -    0s
     0     0   88.98427    0   13  146.00000   88.98427  39.1%     -    0s
     0     0   90.67628    0   19  146.00000   90.67628  37.9%     -    0s
     0     0   90.67628    0   17  146.00000   90.67628  37.9%     -    0s
     0     0   94.90900    0   16  146.00000   94.90900  35.0%     -    0s
     0     0   95.54188    0   20  146.00000   95.54188  34.6%     -    0s
     0     0   95.79816    0   19  146.00000   95.79816  34.4%     -    0s
H    0     0                     143.0000000   95.79816  33.0%     -    0s
     0     0   95.79816    0   20  143.00000   95.79816  33.0%     -    0s
     0     0   96.09590    0   19  143.00000   96.09590  32.8%     -    0s
     0     0   96.09590    0   16  143.00000   96.09590  32.8%     -    0s
     0     2   96.09590    0   16  143.00000   96.09590  32.8%     -    0s

Cutting planes:
  Gomory: 11
  Implied bound: 7
  MIR: 11

Explored 126 nodes (755 simplex iterations) in 0.06 seconds
Thread count was 4 (of 4 available processors)

Solution count 3: 143 146 152 

Optimal solution found (tolerance 1.00e-04)
Best objective 1.430000000000e+02, best bound 1.430000000000e+02, gap 0.0000%

Gurobi 8.1.1 (win64) logging started 11/24/19 10:01:17

Changed value of parameter LogFile to logs/miss/feas/miss-05-30-0.log
   Prev: gurobi.log  Default: 
Changed value of parameter LogToConsole to 0
   Prev: 1  Min: 0  Max: 1  Default: 1
Changed value of parameter TimeLimit to 3600.0
   Prev: 1e+100  Min: 0.0  Max: 1e+100  Default: 1e+100
Optimize a model with 125 rows, 55 columns and 420 nonzeros
Variable types: 0 continuous, 55 integer (50 binary)
Coefficient statistics:
  Matrix range     [1e+00, 3e+02]
  Objective range  [1e+00, 1e+00]
  Bounds range     [1e+00, 1e+00]
  RHS range        [1e+00, 4e+02]
Found heuristic solution: objective 252.0000000
Presolve removed 4 rows and 3 columns
Presolve time: 0.00s
Presolved: 121 rows, 52 columns, 400 nonzeros
Variable types: 0 continuous, 52 integer (47 binary)

Root relaxation: objective 2.606900e+01, 59 iterations, 0.00 seconds

    Nodes    |    Current Node    |     Objective Bounds      |     Work
 Expl Unexpl |  Obj  Depth IntInf | Incumbent    BestBd   Gap | It/Node Time

     0     0   26.06900    0   45  252.00000   26.06900  89.7%     -    0s
     0     0   39.11052    0   28  252.00000   39.11052  84.5%     -    0s
H    0     0                     169.0000000   39.11052  76.9%     -    0s
     0     0   43.61593    0   27  169.00000   43.61593  74.2%     -    0s
     0     0   46.31019    0   26  169.00000   46.31019  72.6%     -    0s
     0     0   47.76273    0   25  169.00000   47.76273  71.7%     -    0s
     0     0   91.30991    0   24  169.00000   91.30991  46.0%     -    0s
H    0     0                     151.0000000   91.30991  39.5%     -    0s
H    0     0                     146.0000000   91.30991  37.5%     -    0s
     0     0   91.85789    0   17  146.00000   91.85789  37.1%     -    0s
     0     0   91.86354    0   17  146.00000   91.86354  37.1%     -    0s
     0     0   92.24514    0   24  146.00000   92.24514  36.8%     -    0s
H    0     0                     141.0000000   92.24514  34.6%     -    0s
     0     0   92.24757    0   25  141.00000   92.24757  34.6%     -    0s
     0     0   92.35549    0   26  141.00000   92.35549  34.5%     -    0s
     0     0   92.35549    0   24  141.00000   92.35549  34.5%     -    0s
     0     0   92.35549    0   27  141.00000   92.35549  34.5%     -    0s
     0     0   92.35549    0   15  141.00000   92.35549  34.5%     -    0s
     0     0   92.35549    0   24  141.00000   92.35549  34.5%     -    0s
     0     0   92.58678    0   19  141.00000   92.58678  34.3%     -    0s
     0     0   92.72207    0   22  141.00000   92.72207  34.2%     -    0s
     0     0   93.40098    0   21  141.00000   93.40098  33.8%     -    0s
     0     0   93.42919    0   22  141.00000   93.42919  33.7%     -    0s
     0     0   93.53946    0   24  141.00000   93.53946  33.7%     -    0s
     0     0   93.53946    0   23  141.00000   93.53946  33.7%     -    0s
     0     0   93.53946    0   23  141.00000   93.53946  33.7%     -    0s
     0     2   93.53946    0   23  141.00000   93.53946  33.7%     -    0s

Cutting planes:
  Gomory: 4
  Implied bound: 5
  MIR: 4

Explored 61 nodes (613 simplex iterations) in 0.09 seconds
Thread count was 4 (of 4 available processors)

Solution count 5: 141 146 151 ... 252

Optimal solution found (tolerance 1.00e-04)
Best objective 1.410000000000e+02, best bound 1.410000000000e+02, gap 0.0000%
